
  22    4
   1   1   1   1

   0   0   0   0   0  13 2 3 4 5 6 7 9 16 17 18 19 20 21 
   7   1   1   0   0   4   13   12   11   8
   8   1   1   0   0   3   15   14   13
   2   1   0   1   0   2   12   8
   8   0   0   0   1   2   13   11
   9   0   1   0   0   2   12   10
   4   0   0   0   1   2   11   10
   3   1   1   0   1   1   10
   6   1   1   0   0   1   11
   5   1   0   1   1   1   22
   10   0   0   1   1   1   22
   4   0   0   1   1   1   22
   3   1   1   0   1   1   22
   1   0   0   1   1   1   22
   9   0   0   1   0   1   22
   7   1   1   0   0   1   22
   10   0   1   0   1   1   22
   3   1   1   1   1   1   22
   10   0   1   0   0   1   22
   7   0   1   1   1   1   22
   7   1   1   1   0   1   22
   0   0   0   0   0   0 
